p tw 82 89
1 2
2 13
3 4
4 80
5 6
6 7
7 8
8 9
9 10
10 11
10 42
11 12
12 14
13 24
14 15
15 16
15 17
16 17
17 18
18 19
19 20
20 21
21 22
22 23
22 28
23 25
24 35
24 5
25 26
26 27
27 12
28 29
29 30
30 31
30 80
31 32
32 33
33 34
34 36
35 46
36 37
37 38
38 39
39 40
40 41
41 80
42 43
43 44
44 45
45 47
46 57
47 48
47 49
48 49
49 50
50 51
51 52
52 53
53 54
54 55
54 64
55 56
56 58
57 68
58 59
59 60
60 61
61 62
62 63
63 44
64 65
65 66
66 67
66 80
67 69
68 79
69 70
70 71
71 72
72 73
73 74
74 75
75 76
76 77
77 78
78 80
79 82
80 81
82 3
